StudentsNr = 15;
InstructorsNr = 10;
DaysNr = 2;
SlotsPerDay = 10;
AvailabilitySlotsLenght = 2;
RoomNr = 2;
ProgrammNr = 2;
DegreeNr = 1;
RolesNr = 2;
CoursesNr = 3;
InstructorsProgramm = [{1}, {2}, {2}, {1, 2}, {1, 2}, {1}, {1, 2}, {1, 2}, {1}, {1}];
InstructorRolesPerProgramm = [|{5, 6, 8}, {1, 5, 6, 9}|{2, 5, 8}, {5}|];
InstructorsAvailability = [|1, 1, 1, 1, 1, 0, 0, 1, 1, 1, |0, 1, 1, 1, 1, 1, 1, 1, 0, 0, |0, 1, 1, 1, 1, 1, 1, 1, 1, 1, |1, 1, 1, 1, 0, 0, 0, 1, 1, 1, |1, 1, 1, 1, 1, 0, 1, 1, 1, 1, |0, 1, 1, 1, 1, 1, 1, 0, 1, 1, |0, 1, 0, 1, 0, 0, 1, 1, 1, 1, |0, 0, 1, 1, 1, 1, 1, 1, 1, 1, |1, 1, 1, 1, 1, 1, 1, 1, 1, 1, |0, 0, 0, 0, 1, 1, 1, 1, 1, 1|];
StudentsProgramm = [2, 2, 2, 2, 1, 1, 2, 1, 2, 2, 1, 1, 1, 2, 1];
StudentsDegree = [1, 1, 1, 1, 1, 1, 1, 1, 1, 1, 1, 1, 1, 1, 1];
StudentsSupervisorId = [4, 7, 4, 7, 5, 6, 8, 5, 3, 3, 8, 4, 9, 4, 4];
StudentsCourseIds = [{1, 2}, {2, 3}, {1, 3}, {2, 3}, {2, 3}, {1, 3}, {1, 2}, {1, 2}, {2, 3}, {2, 3}, {1, 3}, {1, 3}, {1, 3}, {1, 2}, {2, 3}];
StudentsAvailability = [|1, 1, 1, 1, 1, 1, 0, 0, 1, 1, |1, 1, 1, 1, 1, 0, 1, 1, 1, 1, |1, 1, 0, 0, 1, 1, 1, 1, 1, 1, |0, 1, 1, 1, 1, 1, 1, 1, 1, 1, |1, 1, 1, 1, 1, 1, 1, 1, 1, 1, |1, 0, 1, 0, 0, 1, 1, 1, 1, 0, |0, 0, 0, 0, 0, 1, 1, 1, 1, 1, |1, 1, 1, 1, 1, 1, 1, 1, 1, 0, |1, 1, 1, 1, 1, 1, 1, 1, 0, 1, |1, 1, 1, 1, 1, 1, 1, 0, 0, 1, |1, 0, 0, 1, 1, 1, 1, 1, 1, 1, |0, 1, 1, 1, 1, 1, 1, 1, 1, 1, |0, 0, 0, 0, 0, 1, 1, 1, 1, 1, |0, 0, 1, 1, 1, 1, 1, 1, 0, 0, |0, 0, 1, 1, 1, 1, 1, 1, 1, 1|];
CoursesInstructorIds = [{10}, {2, 4, 5, 6, 8, 9}, {3, 7, 8, 9, 10}];
